CUST NO.   XCOORD.    YCOORD.    DEMAND   READY TIME   DUE DATE   SERVICE TIME
    1      35.00      35.00       0.00       0.00    1000.00       0.00
    2      41.00      49.00      10.00     636.00     919.00      10.00
    3      35.00      17.00       7.00      74.00     351.00      10.00
    4      55.00      45.00      13.00     498.00     613.00      10.00
    5      55.00      20.00      19.00     470.00     965.00      10.00
    6      15.00      30.00      26.00      20.00     370.00      10.00
    7      25.00      30.00       3.00     266.00     663.00      10.00
    8      20.00      50.00       5.00     292.00     449.00      10.00
    9      10.00      43.00       9.00     288.00     597.00      10.00
